(set-logic ALL)
(set-option :produce-models true)
(declare-sort BoundSet 0)
(declare-sort UnboundSet 0)
(set-option :finite-model-find true)
(declare-fun IsRedDog (BoundSet) Bool)
(declare-fun Jumps (BoundSet) Bool)
(declare-fun Catches (BoundSet BoundSet) Bool)
(declare-fun IsInMouth (BoundSet BoundSet) Bool)
(declare-fun IsDog (BoundSet) Bool)
(assert (not (=> (exists ((b BoundSet)) (exists ((a BoundSet)) (exists ((c BoundSet)) (and (IsRedDog a) (and (Jumps a) (and (Catches a b) (IsInMouth b c))))))) (exists ((d BoundSet)) (exists ((e BoundSet)) (and (IsDog d) (Catches d e)))))))
(check-sat)
(get-model)